NAME : 10_3_3_1_(33).dat
COMMENT : Henke, Speranza, Wäscher, 2015
TYPE : MCVRP
DIMENSION : 11
EDGE_WEIGHT_TYPE : DISTANCE_MATRIX
CAPACITY : 1000
VEHICLES : 3
PRODUCT TYPES : 3
COMPARTMENTS : 3
NODE_COORD_SECTION
1 50 50
2 50.49 87.33
3 2.05 1.98
4 52.76 19.34
5 76.6 2.76
6 25.77 2.37
7 44.81 3.32
8 26.42 35.17
9 89.16 56.26
10 75.96 8.4
11 49.03 68.64
DEMAND_SECTION
1 0 0 0
2 83 0 0
3 0 456 0
4 135 0 0
5 115 0 0
6 105 0 0
7 94 0 0
8 88 0 0
9 0 0 304
10 128 0 0
11 11 0 0
DEPOT_SECTION
1
EOF